/*********************************************
 * OPL 12.5.1.0 Data
 * Author: alejandro.montero
 * Creation Date: 22/06/2016 at 11:19:43
 *********************************************/
 
 
nTrucks=6;
nPackages=4;
xTruck=5;
yTruck=5;
wTruck=10;
xDimp=[1 2 2 2 2 2 2 1 1 2 2 3 2 1];
yDimp=[1 2 3 2 2 2 2 1 1 3 2 3 2 3];
wp=[3 2 1 2 2 2 2 1 3 3 2 1 23];

incomp=[
 [0 0 0 0]
 [0 0 0 0]
 [0 0 0 0]
 [0 0 0 0]];